Y8 C4 I7
1.0
7.770644 0.000004 0.000000
0.000002 6.729576 0.000000
-0.000001 -0.000001 11.099577
Y C I
8 4 7
direct
0.000000 0.335356 0.120042 Y
0.500000 0.334235 0.114973 Y
0.249934 0.831860 0.119841 Y
0.750066 0.831860 0.119841 Y
0.239724 0.161443 0.887894 Y
0.760276 0.161443 0.887894 Y
0.500000 0.681134 0.887614 Y
0.000000 0.662469 0.882684 Y
0.000000 0.004014 -0.002469 C
0.500000 -0.001611 -0.002926 C
0.249948 0.499055 -0.003671 C
0.750053 0.499055 -0.003671 C
0.251066 0.166997 0.311732 I
0.748934 0.166997 0.311732 I
0.500000 0.665490 0.312177 I
0.000000 0.667294 0.313435 I
0.000000 0.331159 0.684661 I
0.257771 0.834211 0.685507 I
0.742229 0.834211 0.685507 I
