Y8 C4 I7                                
   1.0000000000000000     
     7.7706439999999999    0.0000040000000000    0.0000000000000000
     0.0000020000000000    6.7295759999999998    0.0000000000000000
    -0.0000010000000000   -0.0000010000000000   11.0995770000000000
   Y    C    I 
     8     4     7
Direct
  0.0000000590145538  0.3353561538342658  0.1200418961534881
  0.5000001294174540  0.3342346014940399  0.1149729827429151
  0.2499340089307953  0.8318598477293285  0.1198405708842312
  0.7500661371767170  0.8318599035814055  0.1198405499379206
  0.2397244399714136  0.1614430737279328  0.8878940686488038
  0.7602759298623448  0.1614431278181863  0.8878940717461996
  0.5000002523980447  0.6811341960472659  0.8876142209095021
  0.0000001752232656  0.6624691113127262  0.8826842951389411
  0.0000002640755543  0.0040140573293658 -0.0024694207339721
  0.5000002810566795 -0.0016113015678219 -0.0029262098259010
  0.2499475675206879  0.4990548698194269 -0.0036709819370588
  0.7500529629700576  0.4990548205386082 -0.0036710008887194
  0.2510663187975609  0.1669965479606446  0.3117319182675749
  0.7489340425709347  0.1669965509461541  0.3117319326065466
  0.5000001603825925  0.6654896627294911  0.3121767881100698
  0.0000001678454027  0.6672938505503802  0.3134346670643773
  0.0000000485480345  0.3311588604273030  0.6846605091454401
  0.2577711488447426  0.8342109357868835  0.6855070781547004
  0.7422289053931568  0.8342111299344035  0.6855070638749423

  0.00000000E+00  0.00000000E+00  0.00000000E+00
  0.00000000E+00  0.00000000E+00  0.00000000E+00
  0.00000000E+00  0.00000000E+00  0.00000000E+00
  0.00000000E+00  0.00000000E+00  0.00000000E+00
  0.00000000E+00  0.00000000E+00  0.00000000E+00
  0.00000000E+00  0.00000000E+00  0.00000000E+00
  0.00000000E+00  0.00000000E+00  0.00000000E+00
  0.00000000E+00  0.00000000E+00  0.00000000E+00
  0.00000000E+00  0.00000000E+00  0.00000000E+00
  0.00000000E+00  0.00000000E+00  0.00000000E+00
  0.00000000E+00  0.00000000E+00  0.00000000E+00
  0.00000000E+00  0.00000000E+00  0.00000000E+00
  0.00000000E+00  0.00000000E+00  0.00000000E+00
  0.00000000E+00  0.00000000E+00  0.00000000E+00
  0.00000000E+00  0.00000000E+00  0.00000000E+00
  0.00000000E+00  0.00000000E+00  0.00000000E+00
  0.00000000E+00  0.00000000E+00  0.00000000E+00
  0.00000000E+00  0.00000000E+00  0.00000000E+00
  0.00000000E+00  0.00000000E+00  0.00000000E+00
