Y8 C4 I7                                
   1.0000000000000000     
     7.7706439999999999    0.0000040000000000    0.0000000000000000
     0.0000020000000000    6.7295759999999998    0.0000000000000000
    -0.0000010000000000   -0.0000010000000000   11.0995770000000000
   Y    C    I 
     8     4     7
Direct
  0.9915538903070338  0.3317289544800480  0.1170427638372746
  0.4950440660731183  0.3328454900225458  0.1199238903947687
  0.2440070775353331  0.8256047718972572  0.1217781059912768
  0.7427301735106173  0.8291147181013947  0.1190838418112380
  0.2480617766512689  0.1609018769909160  0.8927098621125713
  0.7338195306467973  0.1550868655758361  0.8878459594577668
  0.4868824071361645  0.6605484148351830  0.8812757766245969
  0.9924206709568046  0.6759291531529004  0.8875251531233231
  0.9871038534237716 -0.0039628081451792  0.9978426167587862
  0.4949653820961615  0.0001904414860053 -0.0023947401721511
  0.2414809294965198  0.5010674456474576  1.0010152662656222
  0.7413357936914672  0.4926236364710519  0.9928421417794931
  0.2440699248570196  0.1636251806514480  0.3110322902883593
  0.7450175007820061  0.1627630020843681  0.3125310901099377
  0.4958371261880666  0.6634535271334628  0.3144636357110314
  0.9936183968832080  0.6625255599367605  0.3136852241619796
  0.3887307436379608  0.3626307552686627  0.6705988612606687
  0.2199743768285792  0.8587993214060822  0.6901540614696378
  0.7373870477056840  0.8311969720525386  0.6838400269039595

  0.00000000E+00  0.00000000E+00  0.00000000E+00
  0.00000000E+00  0.00000000E+00  0.00000000E+00
  0.00000000E+00  0.00000000E+00  0.00000000E+00
  0.00000000E+00  0.00000000E+00  0.00000000E+00
  0.00000000E+00  0.00000000E+00  0.00000000E+00
  0.00000000E+00  0.00000000E+00  0.00000000E+00
  0.00000000E+00  0.00000000E+00  0.00000000E+00
  0.00000000E+00  0.00000000E+00  0.00000000E+00
  0.00000000E+00  0.00000000E+00  0.00000000E+00
  0.00000000E+00  0.00000000E+00  0.00000000E+00
  0.00000000E+00  0.00000000E+00  0.00000000E+00
  0.00000000E+00  0.00000000E+00  0.00000000E+00
  0.00000000E+00  0.00000000E+00  0.00000000E+00
  0.00000000E+00  0.00000000E+00  0.00000000E+00
  0.00000000E+00  0.00000000E+00  0.00000000E+00
  0.00000000E+00  0.00000000E+00  0.00000000E+00
  0.00000000E+00  0.00000000E+00  0.00000000E+00
  0.00000000E+00  0.00000000E+00  0.00000000E+00
  0.00000000E+00  0.00000000E+00  0.00000000E+00
