Y8 C4 I7
1.0
7.770644 0.000004 0.000000
0.000002 6.729576 0.000000
-0.000001 -0.000001 11.099577
Y C I
8 4 7
direct
1.000000 0.333334 0.117770 Y
0.500000 0.333334 0.117770 Y
0.250000 0.833333 0.117770 Y
0.750000 0.833334 0.117770 Y
0.250000 0.166667 0.882230 Y
0.750000 0.166667 0.882230 Y
0.500000 0.666666 0.882230 Y
0.000000 0.666666 0.882230 Y
0.000000 0.000000 0.000000 C
0.500000 0.000000 0.000000 C
0.250000 0.500000 0.000000 C
0.750000 0.500000 0.000000 C
0.250001 0.166667 0.312795 I
0.750001 0.166667 0.312795 I
0.500001 0.666667 0.312795 I
0.000000 0.666667 0.312795 I
1.000000 0.333334 0.687205 I
0.250000 0.833334 0.687205 I
0.750000 0.833333 0.687205 I
