Y8 C4 I7                                
   1.0000000000000000     
     7.7706439999999999    0.0000040000000000    0.0000000000000000
     0.0000020000000000    6.7295759999999998    0.0000000000000000
    -0.0000010000000000   -0.0000010000000000   11.0995770000000000
   Y    C    I 
     8     4     7
Direct
  0.9964847007959006  0.3325751714584422  0.1193030223075553
  0.5008023009002075  0.3325179607960770  0.1193265707872281
  0.2486970880911441  0.8252133421637203  0.1223075856447248
  0.7486636159100337  0.8271485152764385  0.1192155883353185
  0.2486187914053417  0.1643956527363149  0.8942428498092280
  0.7486256940322025  0.1501460615405292  0.8904818884290393
  0.4928311350932690  0.6660025307075043  0.8842672703062417
  1.0044560333962163  0.6660219280096717  0.8842272662511798
  0.9935852432758268 -0.0034581014897704  0.9974395098579830
  0.5036848240567617 -0.0034555488527812 -0.0024381890712285
  0.2486172458192439  0.5028399878312233  1.0031629446403891
  0.7486491791909610  0.4901757855116705  0.9923232473821301
  0.2487110092142425  0.1630506989158800  0.3101390584369998
  0.7486681794921091  0.1618924046973488  0.3128781961058936
  0.4998082918355682  0.6625815465976659  0.3148044796438990
  0.9977157442010317  0.6626987871949620  0.3147496975630679
  0.2486035282416881  0.3738040023976631  0.6539770788231390
  0.2487062050550248  0.8663847632986051  0.6993024637632178
  0.7486179881124926  0.8261375181058364  0.6830855006187058

  0.00000000E+00  0.00000000E+00  0.00000000E+00
  0.00000000E+00  0.00000000E+00  0.00000000E+00
  0.00000000E+00  0.00000000E+00  0.00000000E+00
  0.00000000E+00  0.00000000E+00  0.00000000E+00
  0.00000000E+00  0.00000000E+00  0.00000000E+00
  0.00000000E+00  0.00000000E+00  0.00000000E+00
  0.00000000E+00  0.00000000E+00  0.00000000E+00
  0.00000000E+00  0.00000000E+00  0.00000000E+00
  0.00000000E+00  0.00000000E+00  0.00000000E+00
  0.00000000E+00  0.00000000E+00  0.00000000E+00
  0.00000000E+00  0.00000000E+00  0.00000000E+00
  0.00000000E+00  0.00000000E+00  0.00000000E+00
  0.00000000E+00  0.00000000E+00  0.00000000E+00
  0.00000000E+00  0.00000000E+00  0.00000000E+00
  0.00000000E+00  0.00000000E+00  0.00000000E+00
  0.00000000E+00  0.00000000E+00  0.00000000E+00
  0.00000000E+00  0.00000000E+00  0.00000000E+00
  0.00000000E+00  0.00000000E+00  0.00000000E+00
  0.00000000E+00  0.00000000E+00  0.00000000E+00
