Y8 C4 I7                                
   1.0000000000000000     
     7.7706439999999999    0.0000040000000000    0.0000000000000000
     0.0000020000000000    6.7295759999999998    0.0000000000000000
    -0.0000010000000000   -0.0000010000000000   11.0995770000000000
   Y    C    I 
     8     4     7
Direct
  0.9869418629601242  0.3326901912602120  0.1152837290707399
  0.4890456806274679  0.3343042208786204  0.1201591568831324
  0.2384165271426701  0.8286205585880015  0.1207980937682146
  0.7381889749214842  0.8314977573561607  0.1191832021257078
  0.2452374409311613  0.1609295760631266  0.8903139116892210
  0.7248130014013832  0.1609951756583578  0.8862503985464526
  0.4850258351136979  0.6624390004244867  0.8824447841532526
  0.9865750125572335  0.6801648750970509  0.8875331542812919
  0.9849614712851212 -0.0027330967675696  0.9973128722705390
  0.4883012129560158  0.0029118569451907 -0.0024439968233499
  0.2368571727116357  0.5000642460255144  0.9982144316679263
  0.7368031273128803  0.4965239230753474  0.9944827647477299
  0.2384844763579875  0.1650671289719575  0.3114381342466617
  0.7402416227518839  0.1647106851357357  0.3121289308380042
  0.4901310529147778  0.6654016804167293  0.3140207612309422
  0.9887510585900793  0.6633043017205751  0.3126488993232575
  0.4548009039153851  0.3407308686256594  0.6813365804187507
  0.2219753547070847  0.8444651113731021  0.6869617647265882
  0.7380763027453282  0.8345849398706513  0.6847285226004207

  0.00000000E+00  0.00000000E+00  0.00000000E+00
  0.00000000E+00  0.00000000E+00  0.00000000E+00
  0.00000000E+00  0.00000000E+00  0.00000000E+00
  0.00000000E+00  0.00000000E+00  0.00000000E+00
  0.00000000E+00  0.00000000E+00  0.00000000E+00
  0.00000000E+00  0.00000000E+00  0.00000000E+00
  0.00000000E+00  0.00000000E+00  0.00000000E+00
  0.00000000E+00  0.00000000E+00  0.00000000E+00
  0.00000000E+00  0.00000000E+00  0.00000000E+00
  0.00000000E+00  0.00000000E+00  0.00000000E+00
  0.00000000E+00  0.00000000E+00  0.00000000E+00
  0.00000000E+00  0.00000000E+00  0.00000000E+00
  0.00000000E+00  0.00000000E+00  0.00000000E+00
  0.00000000E+00  0.00000000E+00  0.00000000E+00
  0.00000000E+00  0.00000000E+00  0.00000000E+00
  0.00000000E+00  0.00000000E+00  0.00000000E+00
  0.00000000E+00  0.00000000E+00  0.00000000E+00
  0.00000000E+00  0.00000000E+00  0.00000000E+00
  0.00000000E+00  0.00000000E+00  0.00000000E+00
