Y8 C4 I7                                
   1.0000000000000000     
     7.7706439999999999    0.0000040000000000    0.0000000000000000
     0.0000020000000000    6.7295759999999998    0.0000000000000000
    -0.0000010000000000   -0.0000010000000000   11.0995770000000000
   Y    C    I 
     8     4     7
Direct
  0.0068861931481993  0.3339796484890818  0.1201438832455980
  0.5094400613714259  0.3324088993168068  0.1155404663077243
  0.2576889588477342  0.8279727273412600  0.1210101895961550
  0.7580383413785075  0.8312264206177783  0.1191251708624541
  0.2515564050389131  0.1609010744364101  0.8908152703648061
  0.7714839472510701  0.1603595103790326  0.8861711922778819
  0.5097379779316040  0.6796574139210286  0.8875882287194867
  0.0118509488933309  0.6621973908917647  0.8822933494479269
  0.0076896905783253  0.0026413817298186  0.9975691394103342
  0.5119842717918228 -0.0029438813359332  0.9974063555044781
  0.2597401901746175  0.5002881248613817  0.9987184781618667
  0.7597255105192626  0.4956805554729024  0.9941614740272409
  0.2573506047244613  0.1646761141186994  0.3113553732786771
  0.7557348478451066  0.1642029860665419  0.3122601136574846
  0.5072118689319969  0.6629974179392067  0.3128668909872435
  0.0055949643654449  0.6649541142159110  0.3140725644907822
  0.0518855943055829  0.3442312513036840  0.6797854478439876
  0.2760072966094350  0.8470975499655738  0.6873710910750727
  0.7594863739800792  0.8341445318100676  0.6845413089561525

  0.00000000E+00  0.00000000E+00  0.00000000E+00
  0.00000000E+00  0.00000000E+00  0.00000000E+00
  0.00000000E+00  0.00000000E+00  0.00000000E+00
  0.00000000E+00  0.00000000E+00  0.00000000E+00
  0.00000000E+00  0.00000000E+00  0.00000000E+00
  0.00000000E+00  0.00000000E+00  0.00000000E+00
  0.00000000E+00  0.00000000E+00  0.00000000E+00
  0.00000000E+00  0.00000000E+00  0.00000000E+00
  0.00000000E+00  0.00000000E+00  0.00000000E+00
  0.00000000E+00  0.00000000E+00  0.00000000E+00
  0.00000000E+00  0.00000000E+00  0.00000000E+00
  0.00000000E+00  0.00000000E+00  0.00000000E+00
  0.00000000E+00  0.00000000E+00  0.00000000E+00
  0.00000000E+00  0.00000000E+00  0.00000000E+00
  0.00000000E+00  0.00000000E+00  0.00000000E+00
  0.00000000E+00  0.00000000E+00  0.00000000E+00
  0.00000000E+00  0.00000000E+00  0.00000000E+00
  0.00000000E+00  0.00000000E+00  0.00000000E+00
  0.00000000E+00  0.00000000E+00  0.00000000E+00
