Y8 C4 I7                                
   1.0000000000000000     
     7.7706439999999999    0.0000040000000000    0.0000000000000000
     0.0000020000000000    6.7295759999999998    0.0000000000000000
    -0.0000010000000000   -0.0000010000000000   11.0995770000000000
   Y    C    I 
     8     4     7
Direct
  0.0017339422107683  0.3328152088789333  0.1198411703215284
  0.5052684660473242  0.3317016287700265  0.1172377024158061
  0.2528306359516153  0.8254379152435612  0.1218240621635694
  0.7541909202164715  0.8288983923072547  0.1190906183327994
  0.2489168785207483  0.1609614400923752  0.8928923043257295
  0.7623328217511427  0.1545218244109178  0.8880743749289898
  0.5041807330268591  0.6754263161906949  0.8874971326350569
  0.0101406212949935  0.6604795965201937  0.8811411540229058
  0.0016151830710870 -0.0000482234437351 -0.0024180401643272
  0.5097433564177943 -0.0041792866197432  0.9979346401346019
  0.2553012728648490  0.5012235595811083  1.0012841601969260
  0.7555725987222527  0.4924026286355048  0.9925814334303772
  0.2527962451682665  0.1635446452539313  0.3109384312279713
  0.7519937562104930  0.1626431214621522  0.3126010977792520
  0.5032719319679481  0.6624724271920076  0.3137924019771449
  0.0011646458805451  0.6632594360113333  0.3144875072112616
  0.1150462452819071  0.3643794017806796  0.6696813640272535
  0.2770348427993868  0.8599388991492365  0.6905391281536056
  0.7595378611518045  0.8307944431367329  0.6837752863292029

  0.00000000E+00  0.00000000E+00  0.00000000E+00
  0.00000000E+00  0.00000000E+00  0.00000000E+00
  0.00000000E+00  0.00000000E+00  0.00000000E+00
  0.00000000E+00  0.00000000E+00  0.00000000E+00
  0.00000000E+00  0.00000000E+00  0.00000000E+00
  0.00000000E+00  0.00000000E+00  0.00000000E+00
  0.00000000E+00  0.00000000E+00  0.00000000E+00
  0.00000000E+00  0.00000000E+00  0.00000000E+00
  0.00000000E+00  0.00000000E+00  0.00000000E+00
  0.00000000E+00  0.00000000E+00  0.00000000E+00
  0.00000000E+00  0.00000000E+00  0.00000000E+00
  0.00000000E+00  0.00000000E+00  0.00000000E+00
  0.00000000E+00  0.00000000E+00  0.00000000E+00
  0.00000000E+00  0.00000000E+00  0.00000000E+00
  0.00000000E+00  0.00000000E+00  0.00000000E+00
  0.00000000E+00  0.00000000E+00  0.00000000E+00
  0.00000000E+00  0.00000000E+00  0.00000000E+00
  0.00000000E+00  0.00000000E+00  0.00000000E+00
  0.00000000E+00  0.00000000E+00  0.00000000E+00
