Non SCF run along symmetry lines
216
Reciprocal
0.0 0.0 0.0 1 \Gamma
0.01111111111111111 -0.01111111111111111 0.011111111111111113 1 
0.02222222222222222 -0.02222222222222222 0.022222222222222227 1 
0.033333333333333326 -0.033333333333333326 0.03333333333333333 1 
0.04444444444444444 -0.04444444444444444 0.04444444444444445 1 
0.055555555555555546 -0.055555555555555546 0.05555555555555556 1 
0.06666666666666665 -0.06666666666666665 0.06666666666666667 1 
0.07777777777777777 -0.07777777777777777 0.07777777777777778 1 
0.08888888888888888 -0.08888888888888888 0.0888888888888889 1 
0.09999999999999999 -0.09999999999999999 0.10000000000000002 1 
0.11111111111111109 -0.11111111111111109 0.11111111111111112 1 
0.1222222222222222 -0.1222222222222222 0.12222222222222223 1 
0.1333333333333333 -0.1333333333333333 0.13333333333333333 1 
0.14444444444444443 -0.14444444444444443 0.14444444444444446 1 
0.15555555555555553 -0.15555555555555553 0.15555555555555556 1 
0.16666666666666666 -0.16666666666666666 0.16666666666666669 1 
0.17777777777777776 -0.17777777777777776 0.1777777777777778 1 
0.18888888888888888 -0.18888888888888888 0.1888888888888889 1 
0.19999999999999998 -0.19999999999999998 0.20000000000000004 1 
0.2111111111111111 -0.2111111111111111 0.21111111111111114 1 
0.22222222222222218 -0.22222222222222218 0.22222222222222224 1 
0.2333333333333333 -0.2333333333333333 0.23333333333333336 1 
0.2444444444444444 -0.2444444444444444 0.24444444444444446 1 
0.2555555555555555 -0.2555555555555555 0.25555555555555554 1 
0.2666666666666666 -0.2666666666666666 0.26666666666666666 1 
0.2777777777777778 -0.2777777777777778 0.27777777777777785 1 
0.28888888888888886 -0.28888888888888886 0.2888888888888889 1 
0.29999999999999993 -0.29999999999999993 0.3 1 
0.31111111111111106 -0.31111111111111106 0.3111111111111111 1 
0.32222222222222224 -0.32222222222222224 0.3222222222222223 1 
0.3333333333333333 -0.3333333333333333 0.33333333333333337 1 
0.3444444444444444 -0.3444444444444444 0.34444444444444444 1 
0.3555555555555555 -0.3555555555555555 0.3555555555555556 1 
0.36666666666666664 -0.36666666666666664 0.3666666666666667 1 
0.37777777777777777 -0.37777777777777777 0.3777777777777778 1 
0.38888888888888884 -0.38888888888888884 0.3888888888888889 1 
0.39999999999999997 -0.39999999999999997 0.4000000000000001 1 
0.41111111111111104 -0.41111111111111104 0.41111111111111115 1 
0.4222222222222222 -0.4222222222222222 0.4222222222222223 1 
0.4333333333333333 -0.4333333333333333 0.43333333333333335 1 
0.44444444444444436 -0.44444444444444436 0.4444444444444445 1 
0.4555555555555555 -0.4555555555555555 0.4555555555555556 1 
0.4666666666666666 -0.4666666666666666 0.46666666666666673 1 
0.4777777777777778 -0.4777777777777778 0.47777777777777786 1 
0.4888888888888888 -0.4888888888888888 0.48888888888888893 1 
0.49999999999999994 -0.49999999999999994 0.5 1 H
0.49999999999999994 -0.49999999999999994 0.5 1 H
0.484375 -0.484375 0.5000000000000001 1 
0.4687499999999999 -0.4687499999999999 0.5 1 
0.45312499999999994 -0.45312499999999994 0.5 1 
0.43749999999999994 -0.43749999999999994 0.5 1 
0.421875 -0.421875 0.5000000000000001 1 
0.40624999999999994 -0.40624999999999994 0.5 1 
0.39062499999999994 -0.39062499999999994 0.5 1 
0.375 -0.375 0.5 1 
0.35937499999999994 -0.35937499999999994 0.5 1 
0.34375 -0.34375 0.5 1 
0.32812499999999994 -0.32812499999999994 0.5 1 
0.3125 -0.3125 0.5 1 
0.296875 -0.296875 0.5 1 
0.28124999999999994 -0.28124999999999994 0.5 1 
0.26562499999999994 -0.26562499999999994 0.5 1 
0.25 -0.24999999999999997 0.5 1 
0.234375 -0.23437499999999994 0.5 1 
0.21874999999999997 -0.21874999999999992 0.5 1 
0.203125 -0.20312499999999994 0.5 1 
0.18750000000000006 -0.1875 0.5 1 
0.17187500000000003 -0.17187499999999997 0.5 1 
0.15625 -0.15624999999999994 0.5 1 
0.14062500000000003 -0.14062499999999997 0.5 1 
0.12499999999999999 -0.12499999999999996 0.5 1 
0.10937499999999996 -0.10937499999999993 0.49999999999999994 1 
0.09374999999999999 -0.09374999999999996 0.5 1 
0.07812500000000001 -0.07812499999999999 0.5 1 
0.0625 -0.062499999999999965 0.5 1 
0.04687500000000006 -0.04687500000000002 0.5 1 
0.03125000000000001 -0.03124999999999997 0.5 1 
0.01562500000000007 -0.015625000000000028 0.5 1 
1.6612223980485158e-17 2.2479424728210932e-17 0.49999999999999994 1 N
1.6612223980485158e-17 2.2479424728210932e-17 0.49999999999999994 1 N
2.1727101146858253e-17 1.6142933539691082e-17 0.48437499999999994 1 
2.1513825171546076e-17 1.513459549285651e-17 0.46875 1 
2.6628702337919172e-17 8.798104304336661e-18 0.45312499999999994 1 
2.907950293344963e-17 5.125689686659452e-18 0.4375 1 
3.774727913351175e-18 2.920885068461115e-17 0.421875 1 
6.225528508881632e-18 2.553643606693394e-17 0.40625 1 
8.676329104412092e-18 2.186402144925673e-17 0.390625 1 
1.379120627078519e-17 1.5527530260736883e-17 0.37499999999999994 1 
1.3577930295473009e-17 1.451919221390231e-17 0.359375 1 
1.8692807461846103e-17 8.182701025382458e-18 0.34375 1 
2.1143608057376563e-17 4.510286407705248e-18 0.328125 1 
2.359440865290702e-17 8.378717900280354e-19 0.3125 1 
9.537102036512041e-19 2.22569562171371e-17 0.29687499999999994 1 
7.40434228339025e-19 2.1248618170302528e-17 0.28125 1 
5.8553113947121214e-18 1.4912126981782678e-17 0.26562499999999994 1 
8.306111990242579e-18 1.1239712364105466e-17 0.24999999999999997 1 
1.0756912585773038e-17 7.567297746428256e-18 0.234375 1 
1.3207713181303497e-17 3.894883128751044e-18 0.21875 1 
4.444802539862136e-18 1.1436179748045652e-17 0.20312499999999997 1 
6.895603135392595e-18 7.763765130368442e-18 0.18749999999999997 1 
9.346403730923051e-18 4.091350512691229e-18 0.171875 1 
1.1797204326453512e-17 4.189358950140191e-19 0.15625 1 
3.702171141695125e-19 1.0624309085151264e-17 0.140625 1 
2.8210177096999695e-18 6.95189446747405e-18 0.12500000000000003 1 
9.97000972165839e-19 7.554297182861432e-18 0.10937499999999999 1 
3.447801567696296e-18 3.881882565184219e-18 0.09374999999999999 1 
5.898602163226756e-18 2.0946794750700955e-19 0.078125 1 
1.4105088548499848e-18 3.475947233737025e-18 0.06250000000000001 1 
3.918624984268306e-19 3.27297956801343e-18 0.04687500000000002 1 
2.037292712846311e-18 4.0593533144719387e-19 0.03124999999999998 1 
8.92932615573264e-20 1.132320760589429e-18 0.015625000000000038 1 
0.0 0.0 0.0 1 \Gamma
0.0 0.0 0.0 1 \Gamma
0.00641025641025641 0.00641025641025641 0.006410256410256409 1 
0.01282051282051282 0.01282051282051282 0.012820512820512818 1 
0.019230769230769232 0.019230769230769232 0.019230769230769232 1 
0.02564102564102564 0.02564102564102564 0.025641025641025637 1 
0.03205128205128205 0.03205128205128205 0.03205128205128205 1 
0.038461538461538464 0.038461538461538464 0.038461538461538464 1 
0.04487179487179487 0.044871794871794865 0.04487179487179488 1 
0.05128205128205128 0.05128205128205128 0.05128205128205127 1 
0.057692307692307696 0.057692307692307696 0.05769230769230769 1 
0.0641025641025641 0.0641025641025641 0.0641025641025641 1 
0.07051282051282051 0.07051282051282051 0.07051282051282051 1 
0.07692307692307693 0.07692307692307693 0.07692307692307693 1 
0.08333333333333333 0.08333333333333331 0.08333333333333333 1 
0.08974358974358974 0.08974358974358973 0.08974358974358976 1 
0.09615384615384615 0.09615384615384616 0.09615384615384617 1 
0.10256410256410256 0.10256410256410256 0.10256410256410255 1 
0.10897435897435898 0.10897435897435898 0.10897435897435896 1 
0.11538461538461539 0.11538461538461539 0.11538461538461538 1 
0.12179487179487178 0.12179487179487178 0.12179487179487182 1 
0.1282051282051282 0.1282051282051282 0.1282051282051282 1 
0.1346153846153846 0.1346153846153846 0.1346153846153846 1 
0.14102564102564102 0.14102564102564102 0.14102564102564102 1 
0.14743589743589744 0.14743589743589744 0.14743589743589744 1 
0.15384615384615385 0.15384615384615385 0.15384615384615385 1 
0.16025641025641027 0.16025641025641024 0.16025641025641027 1 
0.16666666666666666 0.16666666666666663 0.16666666666666666 1 
0.17307692307692307 0.17307692307692304 0.1730769230769231 1 
0.1794871794871795 0.17948717948717946 0.17948717948717952 1 
0.1858974358974359 0.18589743589743588 0.18589743589743593 1 
0.1923076923076923 0.19230769230769232 0.19230769230769235 1 
0.1987179487179487 0.1987179487179487 0.19871794871794868 1 
0.20512820512820512 0.20512820512820512 0.2051282051282051 1 
0.21153846153846154 0.21153846153846154 0.2115384615384615 1 
0.21794871794871795 0.21794871794871795 0.21794871794871792 1 
0.22435897435897437 0.22435897435897437 0.22435897435897434 1 
0.23076923076923078 0.23076923076923078 0.23076923076923075 1 
0.23717948717948717 0.23717948717948717 0.23717948717948714 1 
0.24358974358974356 0.24358974358974356 0.24358974358974364 1 
0.25 0.25 0.25 1 P
0.25 0.25 0.25 1 P
0.2564102564102564 0.2307692307692308 0.2564102564102564 1 
0.26282051282051283 0.2115384615384615 0.26282051282051283 1 
0.2692307692307692 0.19230769230769232 0.2692307692307692 1 
0.27564102564102566 0.17307692307692304 0.27564102564102566 1 
0.28205128205128205 0.15384615384615383 0.28205128205128205 1 
0.28846153846153844 0.13461538461538464 0.28846153846153844 1 
0.2948717948717949 0.11538461538461538 0.2948717948717949 1 
0.30128205128205127 0.09615384615384617 0.3012820512820512 1 
0.3076923076923076 0.07692307692307697 0.30769230769230765 1 
0.3141025641025641 0.057692307692307675 0.3141025641025641 1 
0.3205128205128205 0.03846153846153846 0.3205128205128205 1 
0.3269230769230769 0.019230769230769183 0.3269230769230769 1 
0.3333333333333333 2.0094546340012916e-17 0.3333333333333333 1 
0.33974358974358976 -0.019230769230769277 0.33974358974358976 1 
0.34615384615384615 -0.03846153846153847 0.34615384615384615 1 
0.35256410256410253 -0.05769230769230769 0.3525641025641026 1 
0.358974358974359 -0.07692307692307693 0.35897435897435903 1 
0.36538461538461536 -0.09615384615384615 0.3653846153846154 1 
0.37179487179487175 -0.11538461538461534 0.37179487179487175 1 
0.3782051282051282 -0.13461538461538458 0.37820512820512825 1 
0.3846153846153846 -0.15384615384615383 0.38461538461538464 1 
0.39102564102564097 -0.17307692307692302 0.391025641025641 1 
0.3974358974358974 -0.19230769230769232 0.39743589743589747 1 
0.40384615384615385 -0.21153846153846156 0.4038461538461539 1 
0.4102564102564102 -0.23076923076923075 0.4102564102564103 1 
0.4166666666666666 -0.24999999999999992 0.4166666666666667 1 
0.4230769230769231 -0.2692307692307692 0.42307692307692313 1 
0.42948717948717946 -0.2884615384615385 0.4294871794871795 1 
0.43589743589743585 -0.30769230769230765 0.4358974358974359 1 
0.4423076923076923 -0.326923076923077 0.44230769230769235 1 
0.4487179487179486 -0.3461538461538461 0.44871794871794873 1 
0.45512820512820507 -0.3653846153846153 0.4551282051282051 1 
0.4615384615384615 -0.38461538461538464 0.46153846153846156 1 
0.46794871794871784 -0.40384615384615374 0.4679487179487179 1 
0.4743589743589743 -0.4230769230769231 0.4743589743589744 1 
0.4807692307692307 -0.4423076923076923 0.4807692307692308 1 
0.48717948717948706 -0.4615384615384614 0.48717948717948717 1 
0.49358974358974367 -0.4807692307692308 0.49358974358974367 1 
0.49999999999999994 -0.49999999999999994 0.5 1 H
0.25 0.25 0.25 1 P
0.23913043478260868 0.23913043478260868 0.2608695652173913 1 
0.2282608695652174 0.22826086956521738 0.2717391304347826 1 
0.21739130434782608 0.21739130434782608 0.2826086956521739 1 
0.20652173913043478 0.20652173913043476 0.2934782608695652 1 
0.1956521739130435 0.19565217391304346 0.3043478260869565 1 
0.1847826086956522 0.18478260869565216 0.3152173913043478 1 
0.1739130434782609 0.17391304347826086 0.3260869565217391 1 
0.16304347826086957 0.16304347826086954 0.3369565217391304 1 
0.15217391304347827 0.15217391304347824 0.3478260869565217 1 
0.14130434782608695 0.14130434782608695 0.35869565217391297 1 
0.13043478260869565 0.13043478260869562 0.3695652173913043 1 
0.11956521739130435 0.11956521739130437 0.3804347826086956 1 
0.10869565217391305 0.10869565217391307 0.3913043478260869 1 
0.09782608695652173 0.09782608695652174 0.40217391304347827 1 
0.08695652173913043 0.08695652173913045 0.4130434782608695 1 
0.07608695652173914 0.07608695652173915 0.4239130434782608 1 
0.06521739130434784 0.06521739130434784 0.4347826086956521 1 
0.05434782608695651 0.05434782608695652 0.44565217391304346 1 
0.043478260869565216 0.04347826086956522 0.45652173913043476 1 
0.03260869565217392 0.032608695652173926 0.46739130434782605 1 
0.021739130434782594 0.0217391304347826 0.47826086956521735 1 
0.010869565217391271 0.010869565217391276 0.48913043478260865 1 
-2.933600373862887e-18 2.933600373862887e-18 0.49999999999999994 1 N
