Na1 Cl1
1.0
3.485437 0.000000 2.012318
1.161812 3.286101 2.012318
0.000000 0.000000 4.024635
Na Cl
1 1
direct
0.000000 0.000000 0.000000 Na
0.500000 0.500000 0.500000 Cl
