Y8 C4 I7                                
   1.0000000000000000     
     7.7706439999999999    0.0000040000000000    0.0000000000000000
     0.0000020000000000    6.7295759999999998    0.0000000000000000
    -0.0000010000000000   -0.0000010000000000   11.0995770000000000
   Y    C    I 
     8     4     7
Direct
  0.9947579945364904  0.3317924160686606  0.1185380944660607
  0.4988055612908340  0.3325327608951640  0.1194597786893515
  0.2472063162352717  0.8246645300826436  0.1221795173216987
  0.7461103322787357  0.8273292607854726  0.1190143677261597
  0.2494303181358125  0.1621274588104527  0.8940639793781733
  0.7430653285002055  0.1508447228634945  0.8897312293919668
  0.4886729135164102  0.6613099789400512  0.8812148408196004
  0.9988734777864171  0.6706206141823177  0.8863371174025912
  0.9904697980175606 -0.0045425896146050  0.9981790017823046
  0.5001077687862386 -0.0020880241909614 -0.0027320165145989
  0.2455289336634723  0.5022155658311006  1.0027325510078815
  0.7452139729315070  0.4905304803675014  0.9920936190217784
  0.2471670126118045  0.1631046323572200  0.3105095030586494
  0.7474031420618876  0.1619684658945292  0.3127072405545057
  0.4986401900628563  0.6626527840608920  0.3146669157012640
  0.9963003418349999  0.6624551593877507  0.3144618846995736
  0.3183005315519354  0.3746675707991337  0.6616281981535539
  0.2270008396975813  0.8669776949271837  0.6947235456877497
  0.7415513075804199  0.8275095667938586  0.6832866203454125

  0.00000000E+00  0.00000000E+00  0.00000000E+00
  0.00000000E+00  0.00000000E+00  0.00000000E+00
  0.00000000E+00  0.00000000E+00  0.00000000E+00
  0.00000000E+00  0.00000000E+00  0.00000000E+00
  0.00000000E+00  0.00000000E+00  0.00000000E+00
  0.00000000E+00  0.00000000E+00  0.00000000E+00
  0.00000000E+00  0.00000000E+00  0.00000000E+00
  0.00000000E+00  0.00000000E+00  0.00000000E+00
  0.00000000E+00  0.00000000E+00  0.00000000E+00
  0.00000000E+00  0.00000000E+00  0.00000000E+00
  0.00000000E+00  0.00000000E+00  0.00000000E+00
  0.00000000E+00  0.00000000E+00  0.00000000E+00
  0.00000000E+00  0.00000000E+00  0.00000000E+00
  0.00000000E+00  0.00000000E+00  0.00000000E+00
  0.00000000E+00  0.00000000E+00  0.00000000E+00
  0.00000000E+00  0.00000000E+00  0.00000000E+00
  0.00000000E+00  0.00000000E+00  0.00000000E+00
  0.00000000E+00  0.00000000E+00  0.00000000E+00
  0.00000000E+00  0.00000000E+00  0.00000000E+00
