Y8 C4 I7                                
   1.0000000000000000     
     7.7706439999999999    0.0000040000000000    0.0000000000000000
     0.0000020000000000    6.7295759999999998    0.0000000000000000
    -0.0000010000000000   -0.0000010000000000   11.0995770000000000
   Y    C    I 
     8     4     7
Direct
  0.9983688719752596  0.3326395447087293  0.1194203948381802
  0.5024199385053910  0.3318075243144814  0.1186061918328394
  0.2500506911765832  0.8247272302029065  0.1221732662676302
  0.7510757943531211  0.8273261922317208  0.1190365289053145
  0.2477957601335869  0.1622678398148886  0.8940883888063902
  0.7538398741045573  0.1507632500955947  0.8897960663486251
  0.4981210116798669  0.6703837711357089  0.8863107288153438
  0.0084538583305257  0.6615209831679729  0.8812558366362302
  0.9969527071381514 -0.0023160527840132  0.9972316507897500
  0.5065942797766037 -0.0045257809938553  0.9982486715491379
  0.2515502001652286  0.5023443196581721  1.0027820207088729
  0.7518687289807882  0.4904467809464507  0.9920667921634108
  0.2501091663735039  0.1631332395269860  0.3104578586076481
  0.7499342525145601  0.1619349602963461  0.3126914093572601
  0.5010366670343507  0.6623840424829396  0.3145067686664380
  0.9988789274439503  0.6626789523909408  0.3146651841173721
  0.1822179355966491  0.3747776860279865  0.6611431453137725
  0.2696816938544983  0.8670051729741739  0.6950800308090512
  0.7552836955191430  0.8273734055952130  0.6832350777540684

  0.00000000E+00  0.00000000E+00  0.00000000E+00
  0.00000000E+00  0.00000000E+00  0.00000000E+00
  0.00000000E+00  0.00000000E+00  0.00000000E+00
  0.00000000E+00  0.00000000E+00  0.00000000E+00
  0.00000000E+00  0.00000000E+00  0.00000000E+00
  0.00000000E+00  0.00000000E+00  0.00000000E+00
  0.00000000E+00  0.00000000E+00  0.00000000E+00
  0.00000000E+00  0.00000000E+00  0.00000000E+00
  0.00000000E+00  0.00000000E+00  0.00000000E+00
  0.00000000E+00  0.00000000E+00  0.00000000E+00
  0.00000000E+00  0.00000000E+00  0.00000000E+00
  0.00000000E+00  0.00000000E+00  0.00000000E+00
  0.00000000E+00  0.00000000E+00  0.00000000E+00
  0.00000000E+00  0.00000000E+00  0.00000000E+00
  0.00000000E+00  0.00000000E+00  0.00000000E+00
  0.00000000E+00  0.00000000E+00  0.00000000E+00
  0.00000000E+00  0.00000000E+00  0.00000000E+00
  0.00000000E+00  0.00000000E+00  0.00000000E+00
  0.00000000E+00  0.00000000E+00  0.00000000E+00
