Y8 C4 I7
1.0
7.770644 0.000004 0.000000
0.000002 6.729576 0.000000
-0.000001 -0.000001 11.099577
Y C I
8 4 7
direct
0.000000 0.334236 0.114973 Y
0.500000 0.335356 0.120040 Y
0.250066 0.831860 0.119840 Y
0.749934 0.831860 0.119840 Y
0.260276 0.161444 0.887893 Y
0.739724 0.161444 0.887893 Y
0.500000 0.662470 0.882683 Y
0.000000 0.681134 0.887615 Y
0.000000 -0.001617 -0.002918 C
0.500000 0.004014 -0.002469 C
0.250050 0.499054 -0.003671 C
0.749951 0.499054 -0.003671 C
0.248935 0.166997 0.311732 I
0.751066 0.166997 0.311732 I
0.500000 0.667294 0.313434 I
0.000000 0.665491 0.312176 I
0.500000 0.331160 0.684661 I
0.242230 0.834211 0.685507 I
0.757770 0.834211 0.685507 I
