Y8 C4 I7                                
   1.0000000000000000     
     7.7706439999999999    0.0000040000000000    0.0000000000000000
     0.0000020000000000    6.7295759999999998    0.0000000000000000
    -0.0000010000000000   -0.0000010000000000   11.0995770000000000
   Y    C    I 
     8     4     7
Direct
  0.0000001032917419  0.3342356336849172  0.1149733848506202
  0.5000001292453974  0.3353563813282657  0.1200398012582512
  0.2500657538859256  0.8318596763336484  0.1198397368954448
  0.7499344770047840  0.8318596981099128  0.1198397034352379
  0.2602763548565326  0.1614438762958341  0.8878929455166543
  0.7397240199509167  0.1614438145841999  0.8878929476424574
  0.5000001788629777  0.6624701551228940  0.8826826015173850
  0.0000002729037685  0.6811343142399551  0.8876146284970862
  0.0000002389226205 -0.0016172305177084 -0.0029180370163331
  0.5000003008973049  0.0040143966488257 -0.0024693318292182
  0.2500496561574506  0.4990540745477653 -0.0036712725473936
  0.7499508320910389  0.4990541480990967 -0.0036712963319442
  0.2489347231441304  0.1669967448145247  0.3117321048263081
  0.7510656254918363  0.1669967679026608  0.3117320954422486
  0.5000001796054698  0.6672941309642911  0.3134340351187536
  0.0000001680935378  0.6654913695094160  0.3121759707725059
  0.4999999719437771  0.3311597863115492  0.6846609387355671
  0.2422300302995028  0.8342112329456864  0.6855070245063342
  0.7577699833512784  0.8342110290742545  0.6855070187100361

  0.00000000E+00  0.00000000E+00  0.00000000E+00
  0.00000000E+00  0.00000000E+00  0.00000000E+00
  0.00000000E+00  0.00000000E+00  0.00000000E+00
  0.00000000E+00  0.00000000E+00  0.00000000E+00
  0.00000000E+00  0.00000000E+00  0.00000000E+00
  0.00000000E+00  0.00000000E+00  0.00000000E+00
  0.00000000E+00  0.00000000E+00  0.00000000E+00
  0.00000000E+00  0.00000000E+00  0.00000000E+00
  0.00000000E+00  0.00000000E+00  0.00000000E+00
  0.00000000E+00  0.00000000E+00  0.00000000E+00
  0.00000000E+00  0.00000000E+00  0.00000000E+00
  0.00000000E+00  0.00000000E+00  0.00000000E+00
  0.00000000E+00  0.00000000E+00  0.00000000E+00
  0.00000000E+00  0.00000000E+00  0.00000000E+00
  0.00000000E+00  0.00000000E+00  0.00000000E+00
  0.00000000E+00  0.00000000E+00  0.00000000E+00
  0.00000000E+00  0.00000000E+00  0.00000000E+00
  0.00000000E+00  0.00000000E+00  0.00000000E+00
  0.00000000E+00  0.00000000E+00  0.00000000E+00
